c 50_3_checker.cnf
c
c field = 50
c formula set type = 3_checker
c
p cnf 4 58
92 
94 
96 
-90 
93 
95 
97 
-91 
92 
94 
96 
-100 
93 
95 
97 
-101 
94 
96 
100 
-92 
95 
97 
101 
-93 
94 
96 
100 
-102 
95 
97 
101 
-103 
96 
100 
102 
-94 
97 
101 
103 
-95 
96 
100 
102 
-104 
97 
101 
103 
-105 
100 
102 
104 
-96 
101 
103 
105 
-97 
100 
102 
104 
-106 
101 
103 
105 
-107 
8 
38 
68 
-128 
9 
39 
69 
-129 
38 
68 
128 
-8 
39 
69 
129 
-9 
38 
68 
128 
-158 
39 
69 
129 
-159 
68 
128 
158 
-38 
69 
129 
159 
-39 
68 
128 
158 
-188 
69 
129 
159 
-189 
128 
158 
188 
-68 
129 
159 
189 
-69 
128 
158 
188 
-218 
129 
159 
189 
-219 
2 
34 
66 
-130 
3 
35 
67 
-131 
34 
66 
130 
-2 
35 
67 
131 
-3 
34 
66 
130 
-162 
35 
67 
131 
-163 
66 
130 
162 
-34 
67 
131 
163 
-35 
66 
130 
162 
-194 
67 
131 
163 
-195 
130 
162 
194 
-66 
131 
163 
195 
-67 
130 
162 
194 
-226 
131 
163 
195 
-227 
14 
42 
70 
-126 
15 
43 
71 
-127 
42 
70 
126 
-14 
43 
71 
127 
-15 
42 
70 
126 
-154 
43 
71 
127 
-155 
70 
126 
154 
-42 
71 
127 
155 
-43 
70 
126 
154 
-182 
71 
127 
155 
-183 
126 
154 
182 
-70 
127 
155 
183 
-71 
126 
154 
182 
-210 
127 
155 
183 
-211 
